5 5
0 62 1 60 2 77 4 84 3 2
2 89 4 59 1 76 0 25 3 68
0 42 3 76 4 71 1 55 2 38
2 96 3 43 0 70 1 53 4 91
1 99 3 21 2 20 4 19 0 33
-1
0 2 3 5
0 1 2 3 5
0 2 3 4 5
0 3 5
0 1 2 3 5
-2
170 201 306
123 166 356 482
118 214 342 349
287 450
102 162 178 279

456 7
10 0 17 8 24
20 1 7 13 18
5 15 2 22 14
11 21 16 4 9
6 12 3 23 19
